(set-info :smt-lib-version 2.6)
(set-logic QF_NIA)
(set-info :source |AProve team, see http://aprove.informatik.rwth-aachen.de/, submitted for SMT-COMP 2014|)
(set-info :category "industrial")
(set-info :status sat)
(declare-fun b__62 () Int)
(declare-fun a__8 () Int)
(declare-fun a__4 () Int)
(declare-fun a__13 () Int)
(declare-fun a__18 () Int)
(declare-fun a__20 () Int)
(declare-fun a__25 () Int)
(declare-fun a__29 () Int)
(declare-fun a__34 () Int)
(declare-fun a__37 () Int)
(declare-fun a__46 () Int)
(declare-fun a__53 () Int)
(declare-fun a__43 () Int)
(declare-fun a__44 () Int)
(declare-fun a__50 () Int)
(declare-fun a__51 () Int)
(declare-fun b__63 () Int)
(declare-fun a__2 () Int)
(declare-fun b__64 () Int)
(declare-fun a__23 () Int)
(declare-fun a__32 () Int)
(declare-fun a__58 () Int)
(declare-fun b__65 () Int)
(declare-fun a__61 () Int)
(declare-fun a__10 () Int)
(declare-fun b__66 () Int)
(declare-fun a__5 () Int)
(declare-fun a__6 () Int)
(declare-fun a__16 () Int)
(declare-fun a__14 () Int)
(declare-fun a__21 () Int)
(declare-fun a__26 () Int)
(declare-fun a__27 () Int)
(declare-fun a__30 () Int)
(declare-fun a__35 () Int)
(declare-fun a__38 () Int)
(declare-fun a__41 () Int)
(declare-fun a__39 () Int)
(declare-fun a__47 () Int)
(declare-fun a__48 () Int)
(declare-fun a__54 () Int)
(declare-fun a__56 () Int)
(declare-fun a__9 () Int)
(declare-fun a__3 () Int)
(declare-fun a__60 () Int)
(declare-fun a__11 () Int)
(declare-fun a__12 () Int)
(declare-fun a__15 () Int)
(declare-fun a__17 () Int)
(declare-fun a__19 () Int)
(declare-fun a__22 () Int)
(declare-fun a__24 () Int)
(declare-fun a__28 () Int)
(declare-fun a__31 () Int)
(declare-fun a__33 () Int)
(declare-fun a__36 () Int)
(declare-fun a__40 () Int)
(declare-fun a__42 () Int)
(declare-fun a__45 () Int)
(declare-fun a__49 () Int)
(declare-fun a__52 () Int)
(declare-fun a__55 () Int)
(declare-fun a__57 () Int)
(declare-fun a__59 () Int)
(declare-fun a__1 () Int)
(declare-fun a__7 () Int)
(assert (and (>= (+ 1 (* (- 0 1) b__62)) 0) (= (+ (* b__62 a__8 a__4) (* (- 0 1) (* a__8 a__4))) 0) (= (+ (* b__62 a__8 a__13) (* (- 0 1) (* a__8 a__13))) 0) (= (+ (* b__62 a__8 a__18) (* (- 0 1) (* a__8 a__18))) 0) (= (+ (* b__62 a__8 a__20) (* (- 0 1) (* a__8 a__20))) 0) (= (+ (* b__62 a__8 a__25) (* (- 0 1) (* a__8 a__25))) 0) (= (+ (* b__62 a__8 a__29) (* (- 0 1) (* a__8 a__29))) 0) (= (+ (* b__62 a__8 a__34) (* (- 0 1) (* a__8 a__34))) 0) (= (+ (* b__62 a__8 a__37) (* (- 0 1) (* a__8 a__37))) 0) (= (+ (* b__62 a__8 a__46) (* (- 0 1) (* a__8 a__46))) 0) (= (+ (* b__62 a__8 a__53) (* (- 0 1) (* a__8 a__53))) 0) (= (+ (* b__62 a__8 a__43) (* (- 0 1) (* a__8 a__43))) 0) (= (+ (* b__62 a__8 a__44) (* (- 0 1) (* a__8 a__44))) 0) (= (+ (* b__62 a__8 a__50) (* (- 0 1) (* a__8 a__50))) 0) (= (+ (* b__62 a__8 a__51) (* (- 0 1) (* a__8 a__51))) 0) (>= (+ 1 (* (- 0 1) b__63)) 0) (= (+ (* b__63 a__8) (* (- 0 1) a__8)) 0) (= (+ (* b__63 a__2) (* (- 0 1) a__2)) 0) (>= (+ 1 (* (- 0 1) b__64)) 0) (= (+ (* b__64 a__8) (* (- 0 1) a__8)) 0) (= (+ (* b__64 a__2 a__13) (* (- 0 1) (* a__2 a__13))) 0) (= (+ (* b__64 a__2 a__18) (* (- 0 1) (* a__2 a__18))) 0) (= (+ (* b__64 a__2 a__23) (* (- 0 1) (* a__2 a__23))) 0) (= (+ (* b__64 a__2 a__29) (* (- 0 1) (* a__2 a__29))) 0) (= (+ (* b__64 a__2 a__32) (* (- 0 1) (* a__2 a__32))) 0) (= (+ (* b__64 a__2 a__34 a__53) (* (- 0 1) (* a__2 a__34 a__53))) 0) (= (+ (* b__64 a__2 a__37 a__53) (* (- 0 1) (* a__2 a__37 a__53))) 0) (= (+ (* b__64 a__2 a__58 a__53) (* (- 0 1) (* a__2 a__58 a__53))) 0) (= (+ (* b__64 a__2 a__46 a__53) (* (- 0 1) (* a__2 a__46 a__53))) 0) (>= (+ 1 (* (- 0 1) b__65)) 0) (= (+ (* b__65 a__2) (* (- 0 1) a__2)) 0) (= (+ (* b__65 a__8 a__4 a__61) (* (- 0 1) (* a__8 a__4 a__61))) 0) (= (+ (* b__65 a__8 a__4 a__10) (* (- 0 1) (* a__8 a__4 a__10))) 0) (= (+ (* b__65 a__8 a__13 a__61) (* (- 0 1) (* a__8 a__13 a__61))) 0) (= (+ (* b__65 a__8 a__13 a__10) (* (- 0 1) (* a__8 a__13 a__10))) 0) (= (+ (* b__65 a__8 a__18 a__61) (* (- 0 1) (* a__8 a__18 a__61))) 0) (= (+ (* b__65 a__8 a__18 a__10) (* (- 0 1) (* a__8 a__18 a__10))) 0) (= (+ (* b__65 a__8 a__20 a__61) (* (- 0 1) (* a__8 a__20 a__61))) 0) (= (+ (* b__65 a__8 a__20 a__10) (* (- 0 1) (* a__8 a__20 a__10))) 0) (= (+ (* b__65 a__8 a__25 a__61) (* (- 0 1) (* a__8 a__25 a__61))) 0) (= (+ (* b__65 a__8 a__25 a__10) (* (- 0 1) (* a__8 a__25 a__10))) 0) (= (+ (* b__65 a__8 a__29 a__61) (* (- 0 1) (* a__8 a__29 a__61))) 0) (= (+ (* b__65 a__8 a__29 a__10) (* (- 0 1) (* a__8 a__29 a__10))) 0) (= (+ (* b__65 a__8 a__34 a__61) (* (- 0 1) (* a__8 a__34 a__61))) 0) (= (+ (* b__65 a__8 a__34 a__10) (* (- 0 1) (* a__8 a__34 a__10))) 0) (= (+ (* b__65 a__8 a__37 a__61) (* (- 0 1) (* a__8 a__37 a__61))) 0) (= (+ (* b__65 a__8 a__37 a__10) (* (- 0 1) (* a__8 a__37 a__10))) 0) (= (+ (* b__65 a__8 a__46 a__61) (* (- 0 1) (* a__8 a__46 a__61))) 0) (= (+ (* b__65 a__8 a__46 a__10) (* (- 0 1) (* a__8 a__46 a__10))) 0) (= (+ (* b__65 a__8 a__61 a__53) (* (- 0 1) (* a__8 a__61 a__53))) 0) (= (+ (* b__65 a__8 a__61 a__43) (* (- 0 1) (* a__8 a__61 a__43))) 0) (= (+ (* b__65 a__8 a__61 a__44) (* (- 0 1) (* a__8 a__61 a__44))) 0) (= (+ (* b__65 a__8 a__61 a__50) (* (- 0 1) (* a__8 a__61 a__50))) 0) (= (+ (* b__65 a__8 a__61 a__51) (* (- 0 1) (* a__8 a__61 a__51))) 0) (= (+ (* b__65 a__8 a__53 a__10) (* (- 0 1) (* a__8 a__53 a__10))) 0) (= (+ (* b__65 a__8 a__10 a__43) (* (- 0 1) (* a__8 a__10 a__43))) 0) (= (+ (* b__65 a__8 a__10 a__44) (* (- 0 1) (* a__8 a__10 a__44))) 0) (= (+ (* b__65 a__8 a__10 a__50) (* (- 0 1) (* a__8 a__10 a__50))) 0) (= (+ (* b__65 a__8 a__10 a__51) (* (- 0 1) (* a__8 a__10 a__51))) 0) (>= (+ 1 (* (- 0 1) b__66)) 0) (= (+ (* b__66 a__8) (* (- 0 1) a__8)) 0) (= (+ (* b__66 a__2 a__43) (* (- 0 1) (* a__2 a__43))) 0) (>= (+ (* a__4 a__2) (* (- 0 1) (* a__10 a__4 a__8))) 0) (>= (+ (* a__5 a__2) (* (- 0 1) (* a__5 a__8))) 0) (>= (+ (* a__6 a__2) (* (- 0 1) (* a__6 a__8))) 0) (>= (+ (* a__5 a__8) (* (- 0 1) (* a__16 a__13 a__2))) 0) (>= (+ (* a__6 a__8) (* (- 0 1) (* a__14 a__2))) 0) (>= (+ (* a__4 a__2) (* (- 0 1) a__2)) 0) (>= (+ (* a__13 a__2) (* (- 0 1) (* a__10 a__13 a__8))) 0) (>= (+ (* a__14 a__2) (* (- 0 1) (* a__14 a__8))) 0) (>= (+ (* a__14 a__8) (* (- 0 1) (* a__16 a__18 a__2))) 0) (>= (+ (* a__13 a__2) (* (- 0 1) a__2)) 0) (>= (+ (* a__16 a__2) (* (- 0 1) (* a__16 a__8))) 0) (>= (+ (* a__21 a__8) (* (- 0 1) (* a__16 a__23 a__2))) 0) (>= (+ (* a__18 a__2) (* (- 0 1) (* a__10 a__18 a__8))) 0) (>= (+ (* a__26 a__8) (* (- 0 1) (* a__16 a__29 a__2))) 0) (>= (+ (* a__27 a__8) (* (- 0 1) (* a__30 a__2))) 0) (>= (+ (* a__18 a__2) (* (- 0 1) a__2)) 0) (>= (+ (* a__20 a__2) (* (- 0 1) (* a__10 a__20 a__8))) 0) (>= (+ (* a__21 a__2) (* (- 0 1) (* a__21 a__8))) 0) (>= (+ (* a__30 a__8) (* (- 0 1) (* a__16 a__32 a__2))) 0) (>= (+ (* a__20 a__2) (* (- 0 1) a__2)) 0) (>= (+ (* a__35 a__8) (* (- 0 1) a__2)) 0) (>= (+ (* a__23 a__2) (* (- 0 1) a__2)) 0) (>= (+ (* a__25 a__2) (* (- 0 1) (* a__10 a__25 a__8))) 0) (>= (+ (* a__26 a__2) (* (- 0 1) (* a__26 a__8))) 0) (>= (+ (* a__27 a__2) (* (- 0 1) (* a__27 a__8))) 0) (>= (+ (* a__38 a__8) (* (- 0 1) (* a__44 a__41 a__2))) 0) (>= (+ (* a__39 a__8) (* (- 0 1) (* a__43 a__41 a__2))) 0) (>= (+ (* a__25 a__2) (* (- 0 1) a__2)) 0) (>= (+ (* a__29 a__2) (* (- 0 1) (* a__10 a__29 a__8))) 0) (>= (+ (* a__30 a__2) (* (- 0 1) (* a__30 a__8))) 0) (>= (+ (* a__47 a__8) (* (- 0 1) (* a__51 a__43 a__2))) 0) (>= (+ (* a__48 a__8) (* (- 0 1) (* a__50 a__43 a__2)) (* (- 0 1) (* a__44 a__2))) 0) (>= (+ (* a__29 a__2) (* (- 0 1) a__2)) 0) (>= (+ (* a__54 a__8) (* (- 0 1) a__2)) 0) (>= (+ (* a__32 a__2) (* (- 0 1) a__2)) 0) (>= (+ (* a__34 a__2) (* (- 0 1) (* a__10 a__34 a__8))) 0) (>= (+ (* a__35 a__2) (* (- 0 1) (* a__35 a__8))) 0) (>= (+ (* a__43 a__16 a__8) (* (- 0 1) (* a__56 a__53 a__4 a__2)) (* (- 0 1) (* a__5 a__2))) 0) (>= (+ (* a__44 a__16 a__8) (* (- 0 1) (* a__56 a__54 a__4 a__2)) (* (- 0 1) (* a__6 a__2))) 0) (>= (+ (* a__34 a__2) (* (- 0 1) a__2)) 0) (>= (+ (* a__37 a__2) (* (- 0 1) (* a__10 a__37 a__8))) 0) (>= (+ (* a__38 a__2) (* (- 0 1) (* a__38 a__8))) 0) (>= (+ (* a__39 a__2) (* (- 0 1) (* a__39 a__8))) 0) (>= (+ (* a__41 a__16 a__8) (* (- 0 1) (* a__56 a__20 a__2)) (* (- 0 1) (* a__21 a__2))) 0) (>= (+ (* a__37 a__2) (* (- 0 1) a__2)) 0) (>= (+ (* a__50 a__16 a__8) (* (- 0 1) (* a__56 a__53 a__25 a__2)) (* (- 0 1) (* a__26 a__2))) 0) (>= (+ (* a__51 a__16 a__8) (* (- 0 1) (* a__56 a__54 a__25 a__2)) (* (- 0 1) (* a__27 a__2))) 0) (>= (+ (* a__41 a__2) (* (- 0 1) a__2)) 0) (>= (+ (* a__43 a__2) (* (- 0 1) (* a__10 a__43 a__8))) 0) (>= (+ (* a__44 a__2) (* (- 0 1) (* a__10 a__44 a__8))) 0) (>= (+ (* a__43 a__56 a__8) (* (- 0 1) (* a__56 a__53 a__2))) 0) (>= (+ (* a__44 a__56 a__8) (* (- 0 1) (* a__56 a__54 a__2))) 0) (>= (+ (* a__43 a__2) (* (- 0 1) a__2)) 0) (>= (+ (* a__44 a__2) (* (- 0 1) a__2)) 0) (>= (+ (* a__41 a__56 a__8) (* (- 0 1) (* a__56 a__2))) 0) (>= (+ (* a__58 a__2) (* (- 0 1) a__2)) 0) (>= (+ (* a__46 a__2) (* (- 0 1) (* a__10 a__46 a__8))) 0) (>= (+ (* a__47 a__2) (* (- 0 1) (* a__47 a__8))) 0) (>= (+ (* a__48 a__2) (* (- 0 1) (* a__48 a__8))) 0) (>= (+ (* a__50 a__56 a__8) (* (- 0 1) (* a__56 a__53 a__2))) 0) (>= (+ (* a__51 a__56 a__8) (* (- 0 1) (* a__56 a__54 a__2))) 0) (>= (+ (* a__46 a__2) (* (- 0 1) a__2)) 0) (>= (+ (* a__50 a__2) (* (- 0 1) (* a__10 a__50 a__8))) 0) (>= (+ (* a__51 a__2) (* (- 0 1) (* a__10 a__51 a__8))) 0) (>= (+ (* a__43 a__8) (* (- 0 1) (* a__16 a__53 a__34 a__2)) (* (- 0 1) (* a__56 a__54 a__34 a__2)) (* (- 0 1) (* a__35 a__2))) 0) (>= (+ (* a__50 a__2) (* (- 0 1) a__2)) 0) (>= (+ (* a__51 a__2) (* (- 0 1) a__2)) 0) (>= (+ (* a__53 a__2) (* (- 0 1) (* a__10 a__53 a__8))) 0) (>= (+ (* a__54 a__2) (* (- 0 1) (* a__54 a__8))) 0) (>= (+ (* a__43 a__8) (* (- 0 1) (* a__16 a__53 a__54 a__37 a__2)) (* (- 0 1) (* a__56 a__54 a__54 a__37 a__2)) (* (- 0 1) (* a__39 a__2))) 0) (>= (+ (* a__41 a__44 a__8) (* (- 0 1) (* a__16 a__53 a__53 a__37 a__2)) (* (- 0 1) (* a__56 a__54 a__53 a__37 a__2)) (* (- 0 1) (* a__38 a__2))) 0) (>= (+ (* a__53 a__2) (* (- 0 1) a__2)) 0) (>= (+ (* a__56 a__2) (* (- 0 1) (* a__56 a__8))) 0) (>= (+ (* a__50 a__8) (* (- 0 1) (* a__16 a__53 a__58 a__2)) (* (- 0 1) (* a__56 a__54 a__58 a__2))) 0) (>= (+ (* a__50 a__8) (* (- 0 1) (* a__16 a__53 a__54 a__46 a__2)) (* (- 0 1) (* a__56 a__54 a__54 a__46 a__2)) (* (- 0 1) (* a__48 a__2))) 0) (>= (+ (* a__41 a__51 a__8) (* (- 0 1) (* a__16 a__53 a__53 a__46 a__2)) (* (- 0 1) (* a__56 a__54 a__53 a__46 a__2)) (* (- 0 1) (* a__47 a__2))) 0) (>= (+ (* b__62 a__9) (* b__62 a__3 a__10) (* (- 0 1) (* b__62 a__60)) (* (- 0 1) (* b__62 a__3 a__61)) (* (- 0 1) (* b__62 a__9 a__4 a__61))) 0) (>= (+ (* b__62 a__4 a__10) (* (- 0 1) (* b__62 a__10 a__4 a__61))) 0) (>= (+ (* b__62 a__5 a__10) (* (- 0 1) (* b__62 a__5 a__61))) 0) (>= (+ (* b__62 a__6 a__10) (* (- 0 1) (* b__62 a__6 a__61))) 0) (>= (+ (* b__62 a__60) (* b__62 a__3 a__61) (* b__62 a__11 a__4 a__61) (* (- 0 1) (* b__62 a__9)) (* (- 0 1) (* b__62 a__12 a__10)) (* (- 0 1) (* b__62 a__15 a__13 a__10))) 0) (>= (+ (* b__62 a__5 a__61) (* (- 0 1) (* b__62 a__16 a__13 a__10))) 0) (>= (+ (* b__62 a__6 a__61) (* (- 0 1) (* b__62 a__14 a__10))) 0) (>= (+ (* b__62 a__9) (* b__62 a__12 a__10) (* (- 0 1) (* b__62 a__60)) (* (- 0 1) (* b__62 a__12 a__61)) (* (- 0 1) (* b__62 a__9 a__13 a__61))) 0) (>= (+ (* b__62 a__13 a__10) (* (- 0 1) (* b__62 a__10 a__13 a__61))) 0) (>= (+ (* b__62 a__14 a__10) (* (- 0 1) (* b__62 a__14 a__61))) 0) (>= (+ (* b__62 a__60) (* b__62 a__12 a__61) (* b__62 a__11 a__13 a__61) (* (- 0 1) (* b__62 a__9)) (* (- 0 1) (* b__62 a__17 a__10)) (* (- 0 1) (* b__62 a__15 a__18 a__10))) 0) (>= (+ (* b__62 a__14 a__61) (* (- 0 1) (* b__62 a__16 a__18 a__10))) 0) (>= (+ (* b__62 a__9) (* b__62 a__15 a__10) (* (- 0 1) (* b__62 a__60)) (* (- 0 1) (* b__62 a__15 a__61))) 0) (>= (+ (* b__62 a__16 a__10) (* (- 0 1) (* b__62 a__16 a__61))) 0) (>= (+ (* b__62 a__60) (* b__62 a__19 a__61) (* b__62 a__11 a__20 a__61) (* (- 0 1) (* b__62 a__9)) (* (- 0 1) (* b__62 a__22 a__10)) (* (- 0 1) (* b__62 a__15 a__23 a__10))) 0) (>= (+ (* b__62 a__21 a__61) (* (- 0 1) (* b__62 a__16 a__23 a__10))) 0) (>= (+ (* b__62 a__9) (* b__62 a__17 a__10) (* (- 0 1) (* b__62 a__60)) (* (- 0 1) (* b__62 a__17 a__61)) (* (- 0 1) (* b__62 a__9 a__18 a__61))) 0) (>= (+ (* b__62 a__18 a__10) (* (- 0 1) (* b__62 a__10 a__18 a__61))) 0) (>= (+ (* b__62 a__60) (* b__62 a__24 a__61) (* b__62 a__11 a__25 a__61) (* (- 0 1) (* b__62 a__9)) (* (- 0 1) (* b__62 a__28 a__10)) (* (- 0 1) (* b__62 a__15 a__29 a__10))) 0) (>= (+ (* b__62 a__26 a__61) (* (- 0 1) (* b__62 a__16 a__29 a__10))) 0) (>= (+ (* b__62 a__27 a__61) (* (- 0 1) (* b__62 a__30 a__10))) 0) (>= (+ (* b__62 a__9) (* b__62 a__19 a__10) (* (- 0 1) (* b__62 a__60)) (* (- 0 1) (* b__62 a__19 a__61)) (* (- 0 1) (* b__62 a__9 a__20 a__61))) 0) (>= (+ (* b__62 a__20 a__10) (* (- 0 1) (* b__62 a__10 a__20 a__61))) 0) (>= (+ (* b__62 a__21 a__10) (* (- 0 1) (* b__62 a__21 a__61))) 0) (>= (+ (* b__62 a__60) (* b__62 a__28 a__61) (* b__62 a__11 a__29 a__61) (* (- 0 1) (* b__62 a__9)) (* (- 0 1) (* b__62 a__31 a__10)) (* (- 0 1) (* b__62 a__15 a__32 a__10))) 0) (>= (+ (* b__62 a__30 a__61) (* (- 0 1) (* b__62 a__16 a__32 a__10))) 0) (>= (+ (* b__62 a__9) (* b__62 a__22 a__10) (* (- 0 1) (* b__62 a__60)) (* (- 0 1) (* b__62 a__22 a__61)) (* (- 0 1) (* b__62 a__9 a__23 a__61))) 0) (>= (+ (* b__62 a__23 a__10) (* (- 0 1) (* b__62 a__10 a__23 a__61))) 0) (>= (+ (* b__62 a__60) (* b__62 a__33 a__61) (* b__62 a__11 a__34 a__61) (* (- 0 1) (* b__62 a__9))) 0) (>= (+ (* b__62 a__35 a__61) (* (- 0 1) (* b__62 a__10))) 0) (>= (+ (* b__62 a__9) (* b__62 a__24 a__10) (* (- 0 1) (* b__62 a__60)) (* (- 0 1) (* b__62 a__24 a__61)) (* (- 0 1) (* b__62 a__9 a__25 a__61))) 0) (>= (+ (* b__62 a__25 a__10) (* (- 0 1) (* b__62 a__10 a__25 a__61))) 0) (>= (+ (* b__62 a__26 a__10) (* (- 0 1) (* b__62 a__26 a__61))) 0) (>= (+ (* b__62 a__27 a__10) (* (- 0 1) (* b__62 a__27 a__61))) 0) (>= (+ (* b__62 a__60) (* b__62 a__36 a__61) (* b__62 a__11 a__37 a__61) (* (- 0 1) (* b__62 a__9)) (* (- 0 1) (* b__62 a__40 a__10)) (* (- 0 1) (* b__62 a__42 a__41 a__10))) 0) (>= (+ (* b__62 a__38 a__61) (* (- 0 1) (* b__62 a__44 a__41 a__10))) 0) (>= (+ (* b__62 a__39 a__61) (* (- 0 1) (* b__62 a__43 a__41 a__10))) 0) (>= (+ (* b__62 a__9) (* b__62 a__28 a__10) (* (- 0 1) (* b__62 a__60)) (* (- 0 1) (* b__62 a__28 a__61)) (* (- 0 1) (* b__62 a__9 a__29 a__61))) 0) (>= (+ (* b__62 a__29 a__10) (* (- 0 1) (* b__62 a__10 a__29 a__61))) 0) (>= (+ (* b__62 a__30 a__10) (* (- 0 1) (* b__62 a__30 a__61))) 0) (>= (+ (* b__62 a__60) (* b__62 a__45 a__61) (* b__62 a__11 a__46 a__61) (* (- 0 1) (* b__62 a__9)) (* (- 0 1) (* b__62 a__42 a__10)) (* (- 0 1) (* b__62 a__49 a__43 a__10))) 0) (>= (+ (* b__62 a__47 a__61) (* (- 0 1) (* b__62 a__51 a__43 a__10))) 0) (>= (+ (* b__62 a__48 a__61) (* (- 0 1) (* b__62 a__50 a__43 a__10)) (* (- 0 1) (* b__62 a__44 a__10))) 0) (>= (+ (* b__62 a__9) (* b__62 a__31 a__10) (* (- 0 1) (* b__62 a__60)) (* (- 0 1) (* b__62 a__31 a__61)) (* (- 0 1) (* b__62 a__9 a__32 a__61))) 0) (>= (+ (* b__62 a__32 a__10) (* (- 0 1) (* b__62 a__10 a__32 a__61))) 0) (>= (+ (* b__62 a__60) (* b__62 a__52 a__61) (* b__62 a__11 a__53 a__61) (* (- 0 1) (* b__62 a__9))) 0) (>= (+ (* b__62 a__54 a__61) (* (- 0 1) (* b__62 a__10))) 0) (>= (+ (* b__62 a__9) (* b__62 a__33 a__10) (* (- 0 1) (* b__62 a__60)) (* (- 0 1) (* b__62 a__33 a__61)) (* (- 0 1) (* b__62 a__9 a__34 a__61))) 0) (>= (+ (* b__62 a__34 a__10) (* (- 0 1) (* b__62 a__10 a__34 a__61))) 0) (>= (+ (* b__62 a__35 a__10) (* (- 0 1) (* b__62 a__35 a__61))) 0) (>= (+ (* b__62 a__60) (* b__62 a__15 a__61) (* b__62 a__42 a__16 a__61) (* (- 0 1) (* b__62 a__9)) (* (- 0 1) (* b__62 a__3 a__10)) (* (- 0 1) (* b__62 a__52 a__4 a__10)) (* (- 0 1) (* b__62 a__55 a__53 a__4 a__10)) (* (- 0 1) (* b__62 a__55 a__54 a__4 a__10))) 0) (>= (+ (* b__62 a__43 a__16 a__61) (* (- 0 1) (* b__62 a__56 a__53 a__4 a__10)) (* (- 0 1) (* b__62 a__5 a__10))) 0) (>= (+ (* b__62 a__44 a__16 a__61) (* (- 0 1) (* b__62 a__56 a__54 a__4 a__10)) (* (- 0 1) (* b__62 a__6 a__10))) 0) (>= (+ (* b__62 a__9) (* b__62 a__36 a__10) (* (- 0 1) (* b__62 a__60)) (* (- 0 1) (* b__62 a__36 a__61)) (* (- 0 1) (* b__62 a__9 a__37 a__61))) 0) (>= (+ (* b__62 a__37 a__10) (* (- 0 1) (* b__62 a__10 a__37 a__61))) 0) (>= (+ (* b__62 a__38 a__10) (* (- 0 1) (* b__62 a__38 a__61))) 0) (>= (+ (* b__62 a__39 a__10) (* (- 0 1) (* b__62 a__39 a__61))) 0) (>= (+ (* b__62 a__60) (* b__62 a__15 a__61) (* b__62 a__40 a__16 a__61) (* (- 0 1) (* b__62 a__9)) (* (- 0 1) (* b__62 a__19 a__10)) (* (- 0 1) (* b__62 a__55 a__20 a__10))) 0) (>= (+ (* b__62 a__41 a__16 a__61) (* (- 0 1) (* b__62 a__56 a__20 a__10)) (* (- 0 1) (* b__62 a__21 a__10))) 0) (>= (+ (* b__62 a__9) (* b__62 a__40 a__10) (* (- 0 1) (* b__62 a__60)) (* (- 0 1) (* b__62 a__40 a__61)) (* (- 0 1) (* b__62 a__9 a__41 a__61))) 0) (>= (+ (* b__62 a__41 a__10) (* (- 0 1) (* b__62 a__10 a__41 a__61))) 0) (>= (+ (* b__62 a__60) (* b__62 a__15 a__61) (* b__62 a__49 a__16 a__61) (* (- 0 1) (* b__62 a__9)) (* (- 0 1) (* b__62 a__24 a__10)) (* (- 0 1) (* b__62 a__52 a__25 a__10)) (* (- 0 1) (* b__62 a__55 a__53 a__25 a__10)) (* (- 0 1) (* b__62 a__55 a__54 a__25 a__10))) 0) (>= (+ (* b__62 a__50 a__16 a__61) (* (- 0 1) (* b__62 a__56 a__53 a__25 a__10)) (* (- 0 1) (* b__62 a__26 a__10))) 0) (>= (+ (* b__62 a__51 a__16 a__61) (* (- 0 1) (* b__62 a__56 a__54 a__25 a__10)) (* (- 0 1) (* b__62 a__27 a__10))) 0) (>= (+ (* b__62 a__9) (* b__62 a__42 a__10) (* (- 0 1) (* b__62 a__60)) (* (- 0 1) (* b__62 a__42 a__61)) (* (- 0 1) (* b__62 a__9 a__43 a__61)) (* (- 0 1) (* b__62 a__9 a__44 a__61))) 0) (>= (+ (* b__62 a__43 a__10) (* (- 0 1) (* b__62 a__10 a__43 a__61))) 0) (>= (+ (* b__62 a__44 a__10) (* (- 0 1) (* b__62 a__10 a__44 a__61))) 0) (>= (+ (* b__62 a__60) (* b__62 a__55 a__61) (* b__62 a__42 a__56 a__61) (* (- 0 1) (* b__62 a__9)) (* (- 0 1) (* b__62 a__52 a__10)) (* (- 0 1) (* b__62 a__55 a__53 a__10)) (* (- 0 1) (* b__62 a__55 a__54 a__10))) 0) (>= (+ (* b__62 a__43 a__56 a__61) (* (- 0 1) (* b__62 a__56 a__53 a__10))) 0) (>= (+ (* b__62 a__44 a__56 a__61) (* (- 0 1) (* b__62 a__56 a__54 a__10))) 0) (>= (+ (* b__62 a__9) (* b__62 a__57 a__10) (* (- 0 1) (* b__62 a__60)) (* (- 0 1) (* b__62 a__57 a__61)) (* (- 0 1) (* b__62 a__9 a__58 a__61))) 0) (>= (+ (* b__62 a__58 a__10) (* (- 0 1) (* b__62 a__10 a__58 a__61))) 0) (>= (+ (* b__62 a__60) (* b__62 a__55 a__61) (* b__62 a__40 a__56 a__61) (* (- 0 1) (* b__62 a__9)) (* (- 0 1) (* b__62 a__55 a__10))) 0) (>= (+ (* b__62 a__41 a__56 a__61) (* (- 0 1) (* b__62 a__56 a__10))) 0) (>= (+ (* b__62 a__9) (* b__62 a__45 a__10) (* (- 0 1) (* b__62 a__60)) (* (- 0 1) (* b__62 a__45 a__61)) (* (- 0 1) (* b__62 a__9 a__46 a__61))) 0) (>= (+ (* b__62 a__46 a__10) (* (- 0 1) (* b__62 a__10 a__46 a__61))) 0) (>= (+ (* b__62 a__47 a__10) (* (- 0 1) (* b__62 a__47 a__61))) 0) (>= (+ (* b__62 a__48 a__10) (* (- 0 1) (* b__62 a__48 a__61))) 0) (>= (+ (* b__62 a__60) (* b__62 a__55 a__61) (* b__62 a__49 a__56 a__61) (* (- 0 1) (* b__62 a__9)) (* (- 0 1) (* b__62 a__52 a__10)) (* (- 0 1) (* b__62 a__55 a__53 a__10)) (* (- 0 1) (* b__62 a__55 a__54 a__10))) 0) (>= (+ (* b__62 a__50 a__56 a__61) (* (- 0 1) (* b__62 a__56 a__53 a__10))) 0) (>= (+ (* b__62 a__51 a__56 a__61) (* (- 0 1) (* b__62 a__56 a__54 a__10))) 0) (>= (+ (* b__62 a__9) (* b__62 a__49 a__10) (* (- 0 1) (* b__62 a__60)) (* (- 0 1) (* b__62 a__49 a__61)) (* (- 0 1) (* b__62 a__9 a__50 a__61)) (* (- 0 1) (* b__62 a__9 a__51 a__61))) 0) (>= (+ (* b__62 a__50 a__10) (* (- 0 1) (* b__62 a__10 a__50 a__61))) 0) (>= (+ (* b__62 a__51 a__10) (* (- 0 1) (* b__62 a__10 a__51 a__61))) 0) (>= (+ (* b__62 a__60) (* b__62 a__42 a__61) (* b__62 a__59 a__44 a__61) (* (- 0 1) (* b__62 a__9)) (* (- 0 1) (* b__62 a__33 a__10)) (* (- 0 1) (* b__62 a__52 a__34 a__10)) (* (- 0 1) (* b__62 a__15 a__53 a__34 a__10)) (* (- 0 1) (* b__62 a__55 a__54 a__34 a__10))) 0) (>= (+ (* b__62 a__43 a__61) (* (- 0 1) (* b__62 a__16 a__53 a__34 a__10)) (* (- 0 1) (* b__62 a__56 a__54 a__34 a__10)) (* (- 0 1) (* b__62 a__35 a__10))) 0) (>= (+ (* b__62 a__9) (* b__62 a__52 a__10) (* (- 0 1) (* b__62 a__60)) (* (- 0 1) (* b__62 a__52 a__61)) (* (- 0 1) (* b__62 a__9 a__53 a__61))) 0) (>= (+ (* b__62 a__53 a__10) (* (- 0 1) (* b__62 a__10 a__53 a__61))) 0) (>= (+ (* b__62 a__54 a__10) (* (- 0 1) (* b__62 a__54 a__61))) 0) (>= (+ (* b__62 a__60) (* b__62 a__42 a__61) (* b__62 a__40 a__44 a__61) (* (- 0 1) (* b__62 a__9)) (* (- 0 1) (* b__62 a__36 a__10)) (* (- 0 1) (* b__62 a__52 a__37 a__10)) (* (- 0 1) (* b__62 a__52 a__53 a__37 a__10)) (* (- 0 1) (* b__62 a__15 a__53 a__53 a__37 a__10)) (* (- 0 1) (* b__62 a__55 a__54 a__53 a__37 a__10)) (* (- 0 1) (* b__62 a__52 a__54 a__37 a__10)) (* (- 0 1) (* b__62 a__15 a__53 a__54 a__37 a__10)) (* (- 0 1) (* b__62 a__55 a__54 a__54 a__37 a__10))) 0) (>= (+ (* b__62 a__43 a__61) (* (- 0 1) (* b__62 a__16 a__53 a__54 a__37 a__10)) (* (- 0 1) (* b__62 a__56 a__54 a__54 a__37 a__10)) (* (- 0 1) (* b__62 a__39 a__10))) 0) (>= (+ (* b__62 a__41 a__44 a__61) (* (- 0 1) (* b__62 a__16 a__53 a__53 a__37 a__10)) (* (- 0 1) (* b__62 a__56 a__54 a__53 a__37 a__10)) (* (- 0 1) (* b__62 a__38 a__10))) 0) (>= (+ (* b__62 a__9) (* b__62 a__55 a__10) (* (- 0 1) (* b__62 a__60)) (* (- 0 1) (* b__62 a__55 a__61))) 0) (>= (+ (* b__62 a__56 a__10) (* (- 0 1) (* b__62 a__56 a__61))) 0) (>= (+ (* b__62 a__60) (* b__62 a__49 a__61) (* b__62 a__59 a__51 a__61) (* (- 0 1) (* b__62 a__9)) (* (- 0 1) (* b__62 a__57 a__10)) (* (- 0 1) (* b__62 a__52 a__58 a__10)) (* (- 0 1) (* b__62 a__15 a__53 a__58 a__10)) (* (- 0 1) (* b__62 a__55 a__54 a__58 a__10))) 0) (>= (+ (* b__62 a__50 a__61) (* (- 0 1) (* b__62 a__16 a__53 a__58 a__10)) (* (- 0 1) (* b__62 a__56 a__54 a__58 a__10))) 0) (>= (+ (* b__62 a__60) (* b__62 a__49 a__61) (* b__62 a__40 a__51 a__61) (* (- 0 1) (* b__62 a__9)) (* (- 0 1) (* b__62 a__45 a__10)) (* (- 0 1) (* b__62 a__52 a__46 a__10)) (* (- 0 1) (* b__62 a__52 a__53 a__46 a__10)) (* (- 0 1) (* b__62 a__15 a__53 a__53 a__46 a__10)) (* (- 0 1) (* b__62 a__55 a__54 a__53 a__46 a__10)) (* (- 0 1) (* b__62 a__52 a__54 a__46 a__10)) (* (- 0 1) (* b__62 a__15 a__53 a__54 a__46 a__10)) (* (- 0 1) (* b__62 a__55 a__54 a__54 a__46 a__10))) 0) (>= (+ (* b__62 a__50 a__61) (* (- 0 1) (* b__62 a__16 a__53 a__54 a__46 a__10)) (* (- 0 1) (* b__62 a__56 a__54 a__54 a__46 a__10)) (* (- 0 1) (* b__62 a__48 a__10))) 0) (>= (+ (* b__62 a__41 a__51 a__61) (* (- 0 1) (* b__62 a__16 a__53 a__53 a__46 a__10)) (* (- 0 1) (* b__62 a__56 a__54 a__53 a__46 a__10)) (* (- 0 1) (* b__62 a__47 a__10))) 0) (>= (+ (* b__62 a__9) (* b__62 a__11 a__10) (* (- 0 1) (* b__62 a__60)) (* (- 0 1) (* b__62 a__11 a__61))) 0) (>= (+ (* b__62 a__9) (* b__62 a__59 a__10) (* (- 0 1) (* b__62 a__60)) (* (- 0 1) (* b__62 a__59 a__61))) 0) (>= (+ (* b__63 a__10 a__5) (* (- 0 1) (* b__63 a__5))) 0) (>= (+ (* b__63 a__10 a__4) (* (- 0 1) (* b__63 a__4))) 0) (>= (+ (* b__63 a__10 a__6) (* (- 0 1) (* b__63 a__6))) 0) (>= (+ (* b__63 a__61 a__4) (* (- 0 1) (* b__63 a__4))) 0) (>= (+ (* b__63 a__61 a__5) (* (- 0 1) (* b__63 a__5))) 0) (>= (+ (* b__63 a__61 a__6) (* (- 0 1) (* b__63 a__6))) 0) (>= (+ (* b__64 a__61 a__16) (* (- 0 1) (* b__64 a__16))) 0) (>= (+ (* b__64 a__10 a__16) (* (- 0 1) (* b__64 a__16))) 0) (>= (+ (* b__63 a__10 a__14) (* (- 0 1) (* b__63 a__14))) 0) (>= (+ (* b__63 a__10 a__13) (* (- 0 1) (* b__63 a__13))) 0) (>= (+ (* b__63 a__61 a__13) (* (- 0 1) (* b__63 a__13))) 0) (>= (+ (* b__63 a__61 a__14) (* (- 0 1) (* b__63 a__14))) 0) (>= (+ (* b__63 a__61 a__18) (* (- 0 1) (* b__63 a__18))) 0) (>= (+ (* b__63 a__10 a__18) (* (- 0 1) (* b__63 a__18))) 0) (>= (+ (* b__65 a__61 a__23) (* (- 0 1) (* b__65 a__23))) 0) (>= (+ (* b__65 a__10 a__23) (* (- 0 1) (* b__65 a__23))) 0) (>= (+ (* b__63 a__10 a__30) (* (- 0 1) (* b__63 a__30))) 0) (>= (+ (* b__63 a__10 a__29) (* (- 0 1) (* b__63 a__29))) 0) (>= (+ (* b__63 a__61 a__29) (* (- 0 1) (* b__63 a__29))) 0) (>= (+ (* b__63 a__61 a__30) (* (- 0 1) (* b__63 a__30))) 0) (>= (+ (* b__63 a__10 a__21) (* (- 0 1) (* b__63 a__21))) 0) (>= (+ (* b__63 a__10 a__20) (* (- 0 1) (* b__63 a__20))) 0) (>= (+ (* b__63 a__61 a__20) (* (- 0 1) (* b__63 a__20))) 0) (>= (+ (* b__63 a__61 a__21) (* (- 0 1) (* b__63 a__21))) 0) (>= (+ (* b__65 a__61 a__32) (* (- 0 1) (* b__65 a__32))) 0) (>= (+ (* b__65 a__10 a__32) (* (- 0 1) (* b__65 a__32))) 0) (>= (+ (* b__63 a__10 a__26) (* (- 0 1) (* b__63 a__26))) 0) (>= (+ (* b__63 a__10 a__25) (* (- 0 1) (* b__63 a__25))) 0) (>= (+ (* b__63 a__10 a__27) (* (- 0 1) (* b__63 a__27))) 0) (>= (+ (* b__63 a__61 a__25) (* (- 0 1) (* b__63 a__25))) 0) (>= (+ (* b__63 a__61 a__26) (* (- 0 1) (* b__63 a__26))) 0) (>= (+ (* b__63 a__61 a__27) (* (- 0 1) (* b__63 a__27))) 0) (>= (+ (* b__63 a__10 a__44) (* (- 0 1) (* b__63 a__44))) 0) (>= (+ (* b__63 a__10 a__43) (* (- 0 1) (* b__63 a__43))) 0) (>= (+ (* b__63 a__61 a__43) (* (- 0 1) (* b__63 a__43))) 0) (>= (+ (* b__63 a__61 a__44) (* (- 0 1) (* b__63 a__44))) 0) (>= (+ (* b__65 a__61 a__41) (* (- 0 1) (* b__65 a__41))) 0) (>= (+ (* b__65 a__10 a__41) (* (- 0 1) (* b__65 a__41))) 0) (>= (+ (* b__66 a__10 a__51) (* (- 0 1) (* b__66 a__51))) 0) (>= (+ (* b__66 a__10 a__50) (* (- 0 1) (* b__66 a__50))) 0) (>= (+ (* b__66 a__61 a__50) (* (- 0 1) (* b__66 a__50))) 0) (>= (+ (* b__66 a__61 a__51) (* (- 0 1) (* b__66 a__51))) 0) (>= (+ (* b__63 a__10 a__35) (* (- 0 1) (* b__63 a__35))) 0) (>= (+ (* b__63 a__10 a__34) (* (- 0 1) (* b__63 a__34))) 0) (>= (+ (* b__63 a__61 a__34) (* (- 0 1) (* b__63 a__34))) 0) (>= (+ (* b__63 a__61 a__35) (* (- 0 1) (* b__63 a__35))) 0) (>= (+ (* b__63 a__61 a__56) (* (- 0 1) (* b__63 a__56))) 0) (>= (+ (* b__63 a__10 a__56) (* (- 0 1) (* b__63 a__56))) 0) (>= (+ (* b__63 a__10 a__54) (* (- 0 1) (* b__63 a__54))) 0) (>= (+ (* b__63 a__10 a__53) (* (- 0 1) (* b__63 a__53))) 0) (>= (+ (* b__63 a__61 a__53) (* (- 0 1) (* b__63 a__53))) 0) (>= (+ (* b__63 a__61 a__54) (* (- 0 1) (* b__63 a__54))) 0) (>= (+ (* b__63 a__10 a__38) (* (- 0 1) (* b__63 a__38))) 0) (>= (+ (* b__63 a__10 a__37) (* (- 0 1) (* b__63 a__37))) 0) (>= (+ (* b__63 a__10 a__39) (* (- 0 1) (* b__63 a__39))) 0) (>= (+ (* b__63 a__61 a__37) (* (- 0 1) (* b__63 a__37))) 0) (>= (+ (* b__63 a__61 a__38) (* (- 0 1) (* b__63 a__38))) 0) (>= (+ (* b__63 a__61 a__39) (* (- 0 1) (* b__63 a__39))) 0) (>= (+ (* b__63 a__10 a__47) (* (- 0 1) (* b__63 a__47))) 0) (>= (+ (* b__63 a__10 a__46) (* (- 0 1) (* b__63 a__46))) 0) (>= (+ (* b__63 a__10 a__48) (* (- 0 1) (* b__63 a__48))) 0) (>= (+ (* b__63 a__61 a__46) (* (- 0 1) (* b__63 a__46))) 0) (>= (+ (* b__63 a__61 a__47) (* (- 0 1) (* b__63 a__47))) 0) (>= (+ (* b__63 a__61 a__48) (* (- 0 1) (* b__63 a__48))) 0) (>= (+ (* b__65 a__61 a__58) (* (- 0 1) (* b__65 a__58))) 0) (>= (+ (* b__65 a__10 a__58) (* (- 0 1) (* b__65 a__58))) 0) (>= (+ (* b__62 a__60) (* b__62 a__17 a__61) (* b__62 a__11 a__18 a__61) (* (- 0 1) (* b__62 a__9)) (* (- 0 1) (* b__62 a__11 a__10))) 0) (>= (+ (* b__62 a__60) (* b__62 a__22 a__61) (* b__62 a__11 a__23 a__61) (* (- 0 1) (* b__62 a__9)) (* (- 0 1) (* b__62 a__11 a__10))) 0) (>= (+ (* b__62 a__60) (* b__62 a__31 a__61) (* b__62 a__11 a__32 a__61) (* (- 0 1) (* b__62 a__9)) (* (- 0 1) (* b__62 a__11 a__10))) 0) (>= (+ (* b__62 a__60) (* b__62 a__57 a__61) (* b__62 a__11 a__58 a__61) (* (- 0 1) (* b__62 a__9)) (* (- 0 1) (* b__62 a__59 a__10))) 0) (>= (+ (* b__62 a__60) (* b__62 a__15 a__61) (* b__62 a__59 a__16 a__61) (* (- 0 1) (* b__62 a__9)) (* (- 0 1) (* b__62 a__11 a__10))) 0) (>= (+ (* b__62 a__60) (* b__62 a__55 a__61) (* b__62 a__59 a__56 a__61) (* (- 0 1) (* b__62 a__9)) (* (- 0 1) (* b__62 a__11 a__10))) 0) (>= (+ a__1 (* a__3 a__2) (* (- 0 1) a__7) (* (- 0 1) (* a__3 a__8)) (* (- 0 1) (* a__9 a__4 a__8))) 0) (>= (+ a__7 (* a__3 a__8) (* a__11 a__4 a__8) (* (- 0 1) a__1) (* (- 0 1) (* a__12 a__2)) (* (- 0 1) (* a__15 a__13 a__2))) 0) (>= (* a__3 a__2) 0) (>= (+ a__1 (* a__12 a__2) (* (- 0 1) a__7) (* (- 0 1) (* a__12 a__8)) (* (- 0 1) (* a__9 a__13 a__8))) 0) (>= (+ a__7 (* a__12 a__8) (* a__11 a__13 a__8) (* (- 0 1) a__1) (* (- 0 1) (* a__17 a__2)) (* (- 0 1) (* a__15 a__18 a__2))) 0) (>= (* a__12 a__2) 0) (>= (+ a__1 (* a__15 a__2) (* (- 0 1) a__7) (* (- 0 1) (* a__15 a__8))) 0) (>= (+ a__7 (* a__19 a__8) (* a__11 a__20 a__8) (* (- 0 1) a__1) (* (- 0 1) (* a__22 a__2)) (* (- 0 1) (* a__15 a__23 a__2))) 0) (>= (+ a__1 (* a__17 a__2) (* (- 0 1) a__7) (* (- 0 1) (* a__17 a__8)) (* (- 0 1) (* a__9 a__18 a__8))) 0) (>= (+ a__7 (* a__24 a__8) (* a__11 a__25 a__8) (* (- 0 1) a__1) (* (- 0 1) (* a__28 a__2)) (* (- 0 1) (* a__15 a__29 a__2))) 0) (>= (* a__17 a__2) 0) (>= (+ a__1 (* a__19 a__2) (* (- 0 1) a__7) (* (- 0 1) (* a__19 a__8)) (* (- 0 1) (* a__9 a__20 a__8))) 0) (>= (+ a__7 (* a__28 a__8) (* a__11 a__29 a__8) (* (- 0 1) a__1) (* (- 0 1) (* a__31 a__2)) (* (- 0 1) (* a__15 a__32 a__2))) 0) (>= (* a__19 a__2) 0) (>= (+ a__7 (* a__33 a__8) (* a__11 a__34 a__8) (* (- 0 1) a__1)) 0) (>= (* a__22 a__2) 0) (>= (+ a__1 (* a__24 a__2) (* (- 0 1) a__7) (* (- 0 1) (* a__24 a__8)) (* (- 0 1) (* a__9 a__25 a__8))) 0) (>= (+ a__7 (* a__36 a__8) (* a__11 a__37 a__8) (* (- 0 1) a__1) (* (- 0 1) (* a__40 a__2)) (* (- 0 1) (* a__42 a__41 a__2))) 0) (>= (* a__24 a__2) 0) (>= (+ a__1 (* a__28 a__2) (* (- 0 1) a__7) (* (- 0 1) (* a__28 a__8)) (* (- 0 1) (* a__9 a__29 a__8))) 0) (>= (+ a__7 (* a__45 a__8) (* a__11 a__46 a__8) (* (- 0 1) a__1) (* (- 0 1) (* a__42 a__2)) (* (- 0 1) (* a__49 a__43 a__2))) 0) (>= (* a__28 a__2) 0) (>= (+ a__7 (* a__52 a__8) (* a__11 a__53 a__8) (* (- 0 1) a__1)) 0) (>= (* a__31 a__2) 0) (>= (+ a__1 (* a__33 a__2) (* (- 0 1) a__7) (* (- 0 1) (* a__33 a__8)) (* (- 0 1) (* a__9 a__34 a__8))) 0) (>= (+ a__7 (* a__15 a__8) (* a__42 a__16 a__8) (* (- 0 1) a__1) (* (- 0 1) (* a__3 a__2)) (* (- 0 1) (* a__52 a__4 a__2)) (* (- 0 1) (* a__55 a__53 a__4 a__2)) (* (- 0 1) (* a__55 a__54 a__4 a__2))) 0) (>= (* a__33 a__2) 0) (>= (+ a__1 (* a__36 a__2) (* (- 0 1) a__7) (* (- 0 1) (* a__36 a__8)) (* (- 0 1) (* a__9 a__37 a__8))) 0) (>= (+ a__7 (* a__15 a__8) (* a__40 a__16 a__8) (* (- 0 1) a__1) (* (- 0 1) (* a__19 a__2)) (* (- 0 1) (* a__55 a__20 a__2))) 0) (>= (* a__36 a__2) 0) (>= (+ a__7 (* a__15 a__8) (* a__49 a__16 a__8) (* (- 0 1) a__1) (* (- 0 1) (* a__24 a__2)) (* (- 0 1) (* a__52 a__25 a__2)) (* (- 0 1) (* a__55 a__53 a__25 a__2)) (* (- 0 1) (* a__55 a__54 a__25 a__2))) 0) (>= (* a__40 a__2) 0) (>= (+ a__1 (* a__42 a__2) (* (- 0 1) a__7) (* (- 0 1) (* a__42 a__8)) (* (- 0 1) (* a__9 a__43 a__8)) (* (- 0 1) (* a__9 a__44 a__8))) 0) (>= (+ a__7 (* a__55 a__8) (* a__42 a__56 a__8) (* (- 0 1) a__1) (* (- 0 1) (* a__52 a__2)) (* (- 0 1) (* a__55 a__53 a__2)) (* (- 0 1) (* a__55 a__54 a__2))) 0) (>= (* a__42 a__2) 0) (>= (+ a__7 (* a__55 a__8) (* a__40 a__56 a__8) (* (- 0 1) a__1) (* (- 0 1) (* a__55 a__2))) 0) (>= (* a__57 a__2) 0) (>= (+ a__1 (* a__45 a__2) (* (- 0 1) a__7) (* (- 0 1) (* a__45 a__8)) (* (- 0 1) (* a__9 a__46 a__8))) 0) (>= (+ a__7 (* a__55 a__8) (* a__49 a__56 a__8) (* (- 0 1) a__1) (* (- 0 1) (* a__52 a__2)) (* (- 0 1) (* a__55 a__53 a__2)) (* (- 0 1) (* a__55 a__54 a__2))) 0) (>= (* a__45 a__2) 0) (>= (+ a__1 (* a__49 a__2) (* (- 0 1) a__7) (* (- 0 1) (* a__49 a__8)) (* (- 0 1) (* a__9 a__50 a__8)) (* (- 0 1) (* a__9 a__51 a__8))) 0) (>= (+ a__7 (* a__42 a__8) (* a__59 a__44 a__8) (* (- 0 1) a__1) (* (- 0 1) (* a__33 a__2)) (* (- 0 1) (* a__52 a__34 a__2)) (* (- 0 1) (* a__15 a__53 a__34 a__2)) (* (- 0 1) (* a__55 a__54 a__34 a__2))) 0) (>= (* a__49 a__2) 0) (>= (+ a__1 (* a__52 a__2) (* (- 0 1) a__7) (* (- 0 1) (* a__52 a__8)) (* (- 0 1) (* a__9 a__53 a__8))) 0) (>= (+ a__7 (* a__42 a__8) (* a__40 a__44 a__8) (* (- 0 1) a__1) (* (- 0 1) (* a__36 a__2)) (* (- 0 1) (* a__52 a__37 a__2)) (* (- 0 1) (* a__52 a__53 a__37 a__2)) (* (- 0 1) (* a__15 a__53 a__53 a__37 a__2)) (* (- 0 1) (* a__55 a__54 a__53 a__37 a__2)) (* (- 0 1) (* a__52 a__54 a__37 a__2)) (* (- 0 1) (* a__15 a__53 a__54 a__37 a__2)) (* (- 0 1) (* a__55 a__54 a__54 a__37 a__2))) 0) (>= (* a__52 a__2) 0) (>= (+ a__1 (* a__55 a__2) (* (- 0 1) a__7) (* (- 0 1) (* a__55 a__8))) 0) (>= (+ a__7 (* a__49 a__8) (* a__59 a__51 a__8) (* (- 0 1) a__1) (* (- 0 1) (* a__57 a__2)) (* (- 0 1) (* a__52 a__58 a__2)) (* (- 0 1) (* a__15 a__53 a__58 a__2)) (* (- 0 1) (* a__55 a__54 a__58 a__2))) 0) (>= (+ a__7 (* a__49 a__8) (* a__40 a__51 a__8) (* (- 0 1) a__1) (* (- 0 1) (* a__45 a__2)) (* (- 0 1) (* a__52 a__46 a__2)) (* (- 0 1) (* a__52 a__53 a__46 a__2)) (* (- 0 1) (* a__15 a__53 a__53 a__46 a__2)) (* (- 0 1) (* a__55 a__54 a__53 a__46 a__2)) (* (- 0 1) (* a__52 a__54 a__46 a__2)) (* (- 0 1) (* a__15 a__53 a__54 a__46 a__2)) (* (- 0 1) (* a__55 a__54 a__54 a__46 a__2))) 0) (not (and (= (+ a__1 (* a__3 a__2) (* (- 0 1) a__7) (* (- 0 1) (* a__3 a__8)) (* (- 0 1) (* a__9 a__4 a__8))) 0) (= (+ a__7 (* a__3 a__8) (* a__11 a__4 a__8) (* (- 0 1) a__1) (* (- 0 1) (* a__12 a__2)) (* (- 0 1) (* a__15 a__13 a__2))) 0) (= (* a__3 a__2) 0) (= (+ a__1 (* a__12 a__2) (* (- 0 1) a__7) (* (- 0 1) (* a__12 a__8)) (* (- 0 1) (* a__9 a__13 a__8))) 0) (= (+ a__7 (* a__12 a__8) (* a__11 a__13 a__8) (* (- 0 1) a__1) (* (- 0 1) (* a__17 a__2)) (* (- 0 1) (* a__15 a__18 a__2))) 0) (= (* a__12 a__2) 0) (= (+ a__1 (* a__15 a__2) (* (- 0 1) a__7) (* (- 0 1) (* a__15 a__8))) 0) (= (+ a__7 (* a__19 a__8) (* a__11 a__20 a__8) (* (- 0 1) a__1) (* (- 0 1) (* a__22 a__2)) (* (- 0 1) (* a__15 a__23 a__2))) 0) (= (+ a__1 (* a__17 a__2) (* (- 0 1) a__7) (* (- 0 1) (* a__17 a__8)) (* (- 0 1) (* a__9 a__18 a__8))) 0) (= (+ a__7 (* a__24 a__8) (* a__11 a__25 a__8) (* (- 0 1) a__1) (* (- 0 1) (* a__28 a__2)) (* (- 0 1) (* a__15 a__29 a__2))) 0) (= (* a__17 a__2) 0) (= (+ a__1 (* a__19 a__2) (* (- 0 1) a__7) (* (- 0 1) (* a__19 a__8)) (* (- 0 1) (* a__9 a__20 a__8))) 0) (= (+ a__7 (* a__28 a__8) (* a__11 a__29 a__8) (* (- 0 1) a__1) (* (- 0 1) (* a__31 a__2)) (* (- 0 1) (* a__15 a__32 a__2))) 0) (= (* a__19 a__2) 0) (= (+ a__7 (* a__33 a__8) (* a__11 a__34 a__8) (* (- 0 1) a__1)) 0) (= (* a__22 a__2) 0) (= (+ a__1 (* a__24 a__2) (* (- 0 1) a__7) (* (- 0 1) (* a__24 a__8)) (* (- 0 1) (* a__9 a__25 a__8))) 0) (= (+ a__7 (* a__36 a__8) (* a__11 a__37 a__8) (* (- 0 1) a__1) (* (- 0 1) (* a__40 a__2)) (* (- 0 1) (* a__42 a__41 a__2))) 0) (= (* a__24 a__2) 0) (= (+ a__1 (* a__28 a__2) (* (- 0 1) a__7) (* (- 0 1) (* a__28 a__8)) (* (- 0 1) (* a__9 a__29 a__8))) 0) (= (+ a__7 (* a__45 a__8) (* a__11 a__46 a__8) (* (- 0 1) a__1) (* (- 0 1) (* a__42 a__2)) (* (- 0 1) (* a__49 a__43 a__2))) 0) (= (* a__28 a__2) 0) (= (+ a__7 (* a__52 a__8) (* a__11 a__53 a__8) (* (- 0 1) a__1)) 0) (= (* a__31 a__2) 0) (= (+ a__1 (* a__33 a__2) (* (- 0 1) a__7) (* (- 0 1) (* a__33 a__8)) (* (- 0 1) (* a__9 a__34 a__8))) 0) (= (+ a__7 (* a__15 a__8) (* a__42 a__16 a__8) (* (- 0 1) a__1) (* (- 0 1) (* a__3 a__2)) (* (- 0 1) (* a__52 a__4 a__2)) (* (- 0 1) (* a__55 a__53 a__4 a__2)) (* (- 0 1) (* a__55 a__54 a__4 a__2))) 0) (= (* a__33 a__2) 0) (= (+ a__1 (* a__36 a__2) (* (- 0 1) a__7) (* (- 0 1) (* a__36 a__8)) (* (- 0 1) (* a__9 a__37 a__8))) 0) (= (+ a__7 (* a__15 a__8) (* a__40 a__16 a__8) (* (- 0 1) a__1) (* (- 0 1) (* a__19 a__2)) (* (- 0 1) (* a__55 a__20 a__2))) 0) (= (* a__36 a__2) 0) (= (+ a__7 (* a__15 a__8) (* a__49 a__16 a__8) (* (- 0 1) a__1) (* (- 0 1) (* a__24 a__2)) (* (- 0 1) (* a__52 a__25 a__2)) (* (- 0 1) (* a__55 a__53 a__25 a__2)) (* (- 0 1) (* a__55 a__54 a__25 a__2))) 0) (= (* a__40 a__2) 0) (= (+ a__1 (* a__42 a__2) (* (- 0 1) a__7) (* (- 0 1) (* a__42 a__8)) (* (- 0 1) (* a__9 a__43 a__8)) (* (- 0 1) (* a__9 a__44 a__8))) 0) (= (+ a__7 (* a__55 a__8) (* a__42 a__56 a__8) (* (- 0 1) a__1) (* (- 0 1) (* a__52 a__2)) (* (- 0 1) (* a__55 a__53 a__2)) (* (- 0 1) (* a__55 a__54 a__2))) 0) (= (* a__42 a__2) 0) (= (+ a__7 (* a__55 a__8) (* a__40 a__56 a__8) (* (- 0 1) a__1) (* (- 0 1) (* a__55 a__2))) 0) (= (* a__57 a__2) 0) (= (+ a__1 (* a__45 a__2) (* (- 0 1) a__7) (* (- 0 1) (* a__45 a__8)) (* (- 0 1) (* a__9 a__46 a__8))) 0) (= (+ a__7 (* a__55 a__8) (* a__49 a__56 a__8) (* (- 0 1) a__1) (* (- 0 1) (* a__52 a__2)) (* (- 0 1) (* a__55 a__53 a__2)) (* (- 0 1) (* a__55 a__54 a__2))) 0) (= (* a__45 a__2) 0) (= (+ a__1 (* a__49 a__2) (* (- 0 1) a__7) (* (- 0 1) (* a__49 a__8)) (* (- 0 1) (* a__9 a__50 a__8)) (* (- 0 1) (* a__9 a__51 a__8))) 0) (= (+ a__7 (* a__42 a__8) (* a__59 a__44 a__8) (* (- 0 1) a__1) (* (- 0 1) (* a__33 a__2)) (* (- 0 1) (* a__52 a__34 a__2)) (* (- 0 1) (* a__15 a__53 a__34 a__2)) (* (- 0 1) (* a__55 a__54 a__34 a__2))) 0) (= (* a__49 a__2) 0) (= (+ a__1 (* a__52 a__2) (* (- 0 1) a__7) (* (- 0 1) (* a__52 a__8)) (* (- 0 1) (* a__9 a__53 a__8))) 0) (= (+ a__7 (* a__42 a__8) (* a__40 a__44 a__8) (* (- 0 1) a__1) (* (- 0 1) (* a__36 a__2)) (* (- 0 1) (* a__52 a__37 a__2)) (* (- 0 1) (* a__52 a__53 a__37 a__2)) (* (- 0 1) (* a__15 a__53 a__53 a__37 a__2)) (* (- 0 1) (* a__55 a__54 a__53 a__37 a__2)) (* (- 0 1) (* a__52 a__54 a__37 a__2)) (* (- 0 1) (* a__15 a__53 a__54 a__37 a__2)) (* (- 0 1) (* a__55 a__54 a__54 a__37 a__2))) 0) (= (* a__52 a__2) 0) (= (+ a__1 (* a__55 a__2) (* (- 0 1) a__7) (* (- 0 1) (* a__55 a__8))) 0) (= (+ a__7 (* a__49 a__8) (* a__59 a__51 a__8) (* (- 0 1) a__1) (* (- 0 1) (* a__57 a__2)) (* (- 0 1) (* a__52 a__58 a__2)) (* (- 0 1) (* a__15 a__53 a__58 a__2)) (* (- 0 1) (* a__55 a__54 a__58 a__2))) 0) (= (+ a__7 (* a__49 a__8) (* a__40 a__51 a__8) (* (- 0 1) a__1) (* (- 0 1) (* a__45 a__2)) (* (- 0 1) (* a__52 a__46 a__2)) (* (- 0 1) (* a__52 a__53 a__46 a__2)) (* (- 0 1) (* a__15 a__53 a__53 a__46 a__2)) (* (- 0 1) (* a__55 a__54 a__53 a__46 a__2)) (* (- 0 1) (* a__52 a__54 a__46 a__2)) (* (- 0 1) (* a__15 a__53 a__54 a__46 a__2)) (* (- 0 1) (* a__55 a__54 a__54 a__46 a__2))) 0))) (>= b__62 0) (>= 1 b__62) (>= a__8 0) (>= a__4 0) (>= a__13 0) (>= a__18 0) (>= a__20 0) (>= a__25 0) (>= a__29 0) (>= a__34 0) (>= a__37 0) (>= a__46 0) (>= a__53 0) (>= a__43 0) (>= a__44 0) (>= a__50 0) (>= a__51 0) (>= b__63 0) (>= 1 b__63) (>= a__2 0) (>= b__64 0) (>= 1 b__64) (>= a__23 0) (>= a__32 0) (>= a__58 0) (>= b__65 0) (>= 1 b__65) (>= a__61 0) (>= a__10 0) (>= b__66 0) (>= 1 b__66) (>= a__5 0) (>= a__6 0) (>= a__16 0) (>= a__14 0) (>= a__21 0) (>= a__26 0) (>= a__27 0) (>= a__30 0) (>= a__35 0) (>= a__38 0) (>= a__41 0) (>= a__39 0) (>= a__47 0) (>= a__48 0) (>= a__54 0) (>= a__56 0) (>= a__9 0) (>= a__3 0) (>= a__60 0) (>= a__11 0) (>= a__12 0) (>= a__15 0) (>= a__17 0) (>= a__19 0) (>= a__22 0) (>= a__24 0) (>= a__28 0) (>= a__31 0) (>= a__33 0) (>= a__36 0) (>= a__40 0) (>= a__42 0) (>= a__45 0) (>= a__49 0) (>= a__52 0) (>= a__55 0) (>= a__57 0) (>= a__59 0) (>= a__1 0) (>= a__7 0)))
(check-sat)
;;(get-assignment)
;;(get-model)
(exit)
